504 503 502 498 501 500 499 453 452 461 462 463 460 459 458 457 456 455 454 439 440 441 450 449 448 447 446 442 443 444 445 438 437 436 435 434 433 432 430 431 429 428 427 426 424 423 422 421 420 416 415 414 413 417 419 418 410 411 412 356 402 401 403 409 384 383 425 382 386 387 385 408 407 406 405 404 400 399 364 363 362 361 360 359 358 357 355 354 353 352 351 350 349 348 347 346 345 344 343 342 341 340 330 331 332 333 339 338 337 336 335 334 283 284 285 286 287 280 281 282 279 278 277 276 288 289 290 291 292 275 274 273 272 271 268 269 270 293 294 295 296 297 298 267 266 265 264 263 262 261 260 259 258 299 300 257 256 255 253 254 252 251 250 249 248 241 242 243 244 245 247 246 238 239 240 237 509 510 511 513 512 527 526 522 521 523 525 492 491 490 529 528 236 235 234 233 232 224 223 217 216 215 214 213 212 211 210 221 222 220 218 219 209 205 206 207 208 203 204 202 198 199 200 201 165 154 164 166 167 163 168 162 161 160 159 156 155 153 157 158 145 146 144 143 142 147 148 152 149 150 151 141 140 139 138 129 130 137 136 135 134 133 132 131 113 112 114 115 116 128 127 126 125 124 69 70 68 67 66 65 72 71 123 122 117 121 120 118 119 73 74 75 64 76 77 78 88 89 90 85 86 87 80 79 62 63 61 60 59 81 82 83 57 58 56 55 53 54 52 51 84 50 91 92 93 94 97 95 96 98 554 553 552 99 100 102 101 551 550 559 558 557 556 555 45 46 49 48 47 44 43 42 39 41 40 35 38 37 36 33 34 32 30 31 22 23 12 13 21 24 25 26 27 28 29 567 566 565 564 563 562 561 560 549 548 545 546 547 544 543 541 542 107 103 104 105 106 110 111 109 108 173 174 175 172 170 171 169 180 181 179 182 183 185 184 197 196 195 194 193 192 191 190 189 226 225 231 533 532 531 530 489 488 534 230 229 228 227 186 188 187 178 177 176 540 538 537 539 478 477 479 480 476 475 482 481 483 485 484 536 535 487 486 493 524 494 495 471 472 473 474 570 569 568 20 19 18 17 16 15 14 11 10 9 8 7 6 5 4 3 2 1 0 573 572 571 466 464 465 467 468 469 470 496 497 519 518 520 517 514 515 516 506 507 508 302 301 303 304 306 305 318 317 319 320 321 322 323 324 325 326 327 328 329 366 367 365 368 369 370 398 397 394 393 392 391 388 389 390 381 380 379 378 377 376 375 395 396 371 372 373 374 315 314 316 313 312 451 311 310 309 308 307 505